NAME : X-n856-k95
COMMENT : "Generated by Uchoa, Pecin, Pessoa, Poggi, Subramanian, and Vidal (2013)"
TYPE : CVRP
DIMENSION : 856
EDGE_WEIGHT_TYPE : EUC_2D
CAPACITY : 9
NODE_COORD_SECTION
1 500 500
2 440 732
3 221 348
4 117 545
5 493 645
6 135 12
7 775 997
8 745 444
9 950 311
10 530 150
11 900 508
12 48 519
13 269 217
14 722 349
15 480 733
16 977 422
17 999 220
18 636 332
19 851 162
20 559 567
21 389 69
22 529 835
23 303 427
24 400 638
25 894 904
26 482 109
27 579 800
28 184 82
29 669 753
30 906 424
31 374 692
32 174 613
33 75 37
34 38 563
35 838 157
36 710 709
37 176 67
38 449 326
39 71 389
40 710 115
41 237 547
42 530 27
43 631 223
44 171 342
45 226 65
46 6 998
47 24 635
48 668 165
49 318 608
50 429 82
51 212 237
52 853 126
53 387 47
54 677 144
55 111 790
56 957 32
57 511 647
58 457 561
59 86 687
60 290 456
61 473 563
62 807 725
63 461 468
64 739 235
65 257 340
66 588 545
67 6 311
68 268 976
69 552 414
70 994 946
71 452 534
72 422 545
73 248 611
74 43 366
75 977 96
76 822 580
77 940 650
78 86 263
79 715 99
80 668 981
81 424 638
82 297 607
83 251 282
84 237 413
85 202 573
86 181 385
87 126 528
88 386 811
89 978 846
90 70 99
91 333 357
92 49 870
93 157 734
94 627 268
95 818 433
96 738 555
97 350 909
98 337 926
99 978 59
100 42 595
101 870 933
102 19 120
103 165 679
104 131 984
105 232 755
106 319 417
107 187 376
108 251 482
109 657 219
110 209 397
111 800 377
112 228 116
113 566 559
114 490 156
115 216 547
116 964 677
117 85 897
118 292 807
119 600 893
120 938 222
121 543 747
122 572 976
123 569 59
124 712 574
125 971 515
126 616 306
127 695 837
128 421 821
129 604 995
130 537 957
131 1000 653
132 282 817
133 380 874
134 778 101
135 462 74
136 87 682
137 441 228
138 608 430
139 511 313
140 710 300
141 630 24
142 626 650
143 531 719
144 598 824
145 995 622
146 258 981
147 358 281
148 279 169
149 286 268
150 259 659
151 782 132
152 862 518
153 457 603
154 210 438
155 44 44
156 527 818
157 164 156
158 23 86
159 342 930
160 39 282
161 269 848
162 436 886
163 323 340
164 237 891
165 333 488
166 517 137
167 591 972
168 541 888
169 122 280
170 159 655
171 200 158
172 446 283
173 107 315
174 588 270
175 158 374
176 26 353
177 959 76
178 852 328
179 927 736
180 437 138
181 53 938
182 333 192
183 922 499
184 407 948
185 970 664
186 237 738
187 8 561
188 747 852
189 989 908
190 100 860
191 10 960
192 842 190
193 595 716
194 286 965
195 199 373
196 159 67
197 979 25
198 488 479
199 804 620
200 742 853
201 528 160
202 223 342
203 503 159
204 711 681
205 339 340
206 342 509
207 931 593
208 766 953
209 710 172
210 521 451
211 172 159
212 685 836
213 639 155
214 763 656
215 269 241
216 825 761
217 330 177
218 901 124
219 713 860
220 619 926
221 692 19
222 96 876
223 949 178
224 79 795
225 833 852
226 336 444
227 877 0
228 296 597
229 566 735
230 940 377
231 349 269
232 939 827
233 908 120
234 50 741
235 670 569
236 753 744
237 577 351
238 141 616
239 97 625
240 64 875
241 496 160
242 515 598
243 344 803
244 274 510
245 291 170
246 800 300
247 74 609
248 365 207
249 791 396
250 453 848
251 405 191
252 395 290
253 525 743
254 260 385
255 408 837
256 1 346
257 231 504
258 837 572
259 606 473
260 900 729
261 346 868
262 123 80
263 477 169
264 383 59
265 510 410
266 890 101
267 952 635
268 825 722
269 68 598
270 234 841
271 911 720
272 172 367
273 569 289
274 84 19
275 694 916
276 454 412
277 261 233
278 693 375
279 588 854
280 276 538
281 599 569
282 142 158
283 338 805
284 324 194
285 739 325
286 845 639
287 638 182
288 858 93
289 40 923
290 37 599
291 638 39
292 218 714
293 568 674
294 288 840
295 439 570
296 325 801
297 587 278
298 992 674
299 597 608
300 174 865
301 65 330
302 872 434
303 620 129
304 339 681
305 178 811
306 478 966
307 469 749
308 475 791
309 799 594
310 692 130
311 59 223
312 811 2
313 5 946
314 219 305
315 759 951
316 656 889
317 582 18
318 97 885
319 888 467
320 899 286
321 512 358
322 188 776
323 220 951
324 503 801
325 483 402
326 685 904
327 483 722
328 13 301
329 387 976
330 607 709
331 857 739
332 51 422
333 818 797
334 302 646
335 474 101
336 817 66
337 573 973
338 948 686
339 922 552
340 586 899
341 153 503
342 47 817
343 740 970
344 216 852
345 261 776
346 935 540
347 920 879
348 642 623
349 305 71
350 268 373
351 409 940
352 374 176
353 894 60
354 539 352
355 605 457
356 4 240
357 340 303
358 563 524
359 861 875
360 700 810
361 160 753
362 985 455
363 981 276
364 708 646
365 575 249
366 777 725
367 724 888
368 853 773
369 4 27
370 743 430
371 301 574
372 38 983
373 575 209
374 10 683
375 878 342
376 745 333
377 616 311
378 537 110
379 70 839
380 531 647
381 157 736
382 609 356
383 450 852
384 534 11
385 436 279
386 340 578
387 41 809
388 971 282
389 389 628
390 171 951
391 821 278
392 633 578
393 158 858
394 374 163
395 219 471
396 392 784
397 586 937
398 546 923
399 619 737
400 700 50
401 722 223
402 112 450
403 857 66
404 81 295
405 314 964
406 829 981
407 723 590
408 645 700
409 318 800
410 277 268
411 459 81
412 573 211
413 391 259
414 368 81
415 262 451
416 629 44
417 390 264
418 842 703
419 780 254
420 653 177
421 882 625
422 763 432
423 615 183
424 62 855
425 629 543
426 27 83
427 822 574
428 355 86
429 102 110
430 859 489
431 410 900
432 519 683
433 111 12
434 957 366
435 848 474
436 265 184
437 985 701
438 862 488
439 215 888
440 945 515
441 76 204
442 553 988
443 22 32
444 817 463
445 938 553
446 441 911
447 944 473
448 120 85
449 139 101
450 551 214
451 422 750
452 373 976
453 196 122
454 312 75
455 870 353
456 25 46
457 470 958
458 184 140
459 890 462
460 841 551
461 843 479
462 82 88
463 979 491
464 898 582
465 439 811
466 8 173
467 199 182
468 239 151
469 960 334
470 67 99
471 49 100
472 253 120
473 124 84
474 64 183
475 453 987
476 490 869
477 153 111
478 421 756
479 862 440
480 170 166
481 887 544
482 854 544
483 58 109
484 135 102
485 408 787
486 44 101
487 859 469
488 865 487
489 845 522
490 350 875
491 24 154
492 945 452
493 732 438
494 322 797
495 569 889
496 853 466
497 286 3
498 19 558
499 44 168
500 482 967
501 271 127
502 425 909
503 405 777
504 921 499
505 513 901
506 811 488
507 541 920
508 41 240
509 876 405
510 449 871
511 786 558
512 467 684
513 75 150
514 827 446
515 625 441
516 122 117
517 321 913
518 935 443
519 378 902
520 95 48
521 939 576
522 991 561
523 887 479
524 108 102
525 822 451
526 137 252
527 788 543
528 556 988
529 769 375
530 445 848
531 446 965
532 925 421
533 674 544
534 117 30
535 388 987
536 119 18
537 439 962
538 134 297
539 614 521
540 887 325
541 467 903
542 772 461
543 423 944
544 379 846
545 916 509
546 983 447
547 667 885
548 96 150
549 465 911
550 96 17
551 425 963
552 93 201
553 132 93
554 671 926
555 901 468
556 93 287
557 795 581
558 741 514
559 119 223
560 503 964
561 849 388
562 80 58
563 116 81
564 123 266
565 683 363
566 77 114
567 872 520
568 187 62
569 83 158
570 918 677
571 19 198
572 909 427
573 937 395
574 11 176
575 80 88
576 72 143
577 510 919
578 25 87
579 421 825
580 855 443
581 823 522
582 468 802
583 2 112
584 96 91
585 647 389
586 876 475
587 422 970
588 705 454
589 151 897
590 853 420
591 883 484
592 27 44
593 852 479
594 154 38
595 285 921
596 50 196
597 956 449
598 259 863
599 702 637
600 422 975
601 413 885
602 432 847
603 112 263
604 908 625
605 783 344
606 422 744
607 372 987
608 860 387
609 168 96
610 358 850
611 476 813
612 62 117
613 539 970
614 278 215
615 854 616
616 379 769
617 418 899
618 128 124
619 46 207
620 466 816
621 890 559
622 688 555
623 826 582
624 127 126
625 879 499
626 401 805
627 384 826
628 320 775
629 204 336
630 866 515
631 801 544
632 117 139
633 852 498
634 397 949
635 405 865
636 724 356
637 414 830
638 131 31
639 318 200
640 946 468
641 1 157
642 542 729
643 245 352
644 539 905
645 827 317
646 376 836
647 878 519
648 212 724
649 876 516
650 96 124
651 939 557
652 504 915
653 380 841
654 149 149
655 804 494
656 330 999
657 104 67
658 283 883
659 877 601
660 866 497
661 138 48
662 814 455
663 970 535
664 450 898
665 220 93
666 208 26
667 317 96
668 921 488
669 903 248
670 95 80
671 849 498
672 816 494
673 52 141
674 180 59
675 69 98
676 199 69
677 884 460
678 879 525
679 57 102
680 978 705
681 929 486
682 152 106
683 691 634
684 456 977
685 391 789
686 442 872
687 754 759
688 854 615
689 820 450
690 326 986
691 71 69
692 315 718
693 377 938
694 44 74
695 290 921
696 899 478
697 24 197
698 438 957
699 142 147
700 437 837
701 742 549
702 288 844
703 792 425
704 413 913
705 447 938
706 849 496
707 262 65
708 840 466
709 533 687
710 810 536
711 213 160
712 860 414
713 884 459
714 4 153
715 447 930
716 140 44
717 521 878
718 575 779
719 442 900
720 877 579
721 893 487
722 73 13
723 394 886
724 511 949
725 474 772
726 812 425
727 684 471
728 458 971
729 132 137
730 797 351
731 401 904
732 132 115
733 386 268
734 856 456
735 953 616
736 382 794
737 548 895
738 861 525
739 372 780
740 967 425
741 534 912
742 52 157
743 396 888
744 82 60
745 856 523
746 12 90
747 8 208
748 303 67
749 497 721
750 454 984
751 120 69
752 831 458
753 786 524
754 40 111
755 347 868
756 377 932
757 296 934
758 896 547
759 884 450
760 812 534
761 926 500
762 380 921
763 423 888
764 797 512
765 848 444
766 716 514
767 412 903
768 871 532
769 402 885
770 870 564
771 826 512
772 529 867
773 451 999
774 852 522
775 406 859
776 51 110
777 919 577
778 824 407
779 411 883
780 794 483
781 46 105
782 274 236
783 430 972
784 854 533
785 336 959
786 813 702
787 210 304
788 460 867
789 315 915
790 454 857
791 905 380
792 831 580
793 399 106
794 97 106
795 805 499
796 904 561
797 420 930
798 876 448
799 102 164
800 74 112
801 139 43
802 370 995
803 849 441
804 405 938
805 57 100
806 78 81
807 170 77
808 959 379
809 347 913
810 845 478
811 316 803
812 115 74
813 538 906
814 939 530
815 405 891
816 235 819
817 982 463
818 817 482
819 463 971
820 847 370
821 200 145
822 769 970
823 712 624
824 910 566
825 867 531
826 352 966
827 490 865
828 451 831
829 97 85
830 408 920
831 869 485
832 341 453
833 10 127
834 1 25
835 918 775
836 277 884
837 847 483
838 884 435
839 745 448
840 118 13
841 222 755
842 695 341
843 25 18
844 380 843
845 949 466
846 436 877
847 912 446
848 405 857
849 824 490
850 486 866
851 568 430
852 935 513
853 821 687
854 367 814
855 33 97
856 411 722
PICKUP_AND_DELIVERY_SECTION
1 0 0 1000000000 0 0 0
2 0 0 1000000000 0 0.3989 0.6011
3 0 0 1000000000 0 0.3649 0.6351
4 0 0 1000000000 0 0.7853 0.2147
5 0 0 1000000000 0 0.2357 0.7643
6 0 0 1000000000 0 0.9111 0.08889
7 0 0 1000000000 0 0.2227 0.7773
8 0 0 1000000000 0 0.404 0.596
9 0 0 1000000000 0 0.6726 0.3274
10 0 0 1000000000 0 0.717 0.283
11 0 0 1000000000 0 0.4356 0.5644
12 0 0 1000000000 0 0.9075 0.09249
13 0 0 1000000000 0 0.1933 0.8067
14 0 0 1000000000 0 0.5166 0.4834
15 0 0 1000000000 0 0.3452 0.6548
16 0 0 1000000000 0 0.5681 0.4319
17 0 0 1000000000 0 0.7798 0.2202
18 0 0 1000000000 0 0.478 0.522
19 0 0 1000000000 0 0.8096 0.1904
20 0 0 1000000000 0 0.01411 0.9859
21 0 0 1000000000 0 0.8226 0.1774
22 0 0 1000000000 0 0.3665 0.6335
23 0 0 1000000000 0 0.2904 0.7096
24 0 0 1000000000 0 0.373 0.627
25 0 0 1000000000 0 0.01106 0.9889
26 0 0 1000000000 0 0.7739 0.2261
27 0 0 1000000000 0 0.2762 0.7238
28 0 0 1000000000 0 0.5543 0.4457
29 0 0 1000000000 0 0.1116 0.8884
30 0 0 1000000000 0 0.532 0.468
31 0 0 1000000000 0 0.4595 0.5405
32 0 0 1000000000 0 0.7162 0.2838
33 0 0 1000000000 0 0.5067 0.4933
34 0 0 1000000000 0 0.9325 0.0675
35 0 0 1000000000 0 0.8126 0.1874
36 0 0 1000000000 0 0.00141 0.9986
37 0 0 1000000000 0 0.6193 0.3807
38 0 0 1000000000 0 0.2739 0.7261
39 0 0 1000000000 0 0.8175 0.1825
40 0 0 1000000000 0 0.838 0.162
41 0 0 1000000000 0 0.5667 0.4333
42 0 0 1000000000 0 0.9491 0.05094
43 0 0 1000000000 0 0.6466 0.3534
44 0 0 1000000000 0 0.5 0.5
45 0 0 1000000000 0 0.7124 0.2876
46 0 0 1000000000 0 0.994 0.00601
47 0 0 1000000000 0 0.9622 0.0378
48 0 0 1000000000 0 0.753 0.247
49 0 0 1000000000 0 0.477 0.523
50 0 0 1000000000 0 0.8089 0.1911
51 0 0 1000000000 0 0.1055 0.8945
52 0 0 1000000000 0 0.8523 0.1477
53 0 0 1000000000 0 0.8786 0.1214
54 0 0 1000000000 0 0.7873 0.2127
55 0 0 1000000000 0 0.8595 0.1405
56 0 0 1000000000 0 0.9666 0.03344
57 0 0 1000000000 0 0.2102 0.7898
58 0 0 1000000000 0 0.1854 0.8146
59 0 0 1000000000 0 0.8748 0.1252
60 0 0 1000000000 0 0.364 0.636
61 0 0 1000000000 0 0.1599 0.8401
62 0 0 1000000000 0 0.1016 0.8984
63 0 0 1000000000 0 0.01496 0.985
64 0 0 1000000000 0 0.682 0.318
65 0 0 1000000000 0 0.2441 0.7559
66 0 0 1000000000 0 0.07313 0.9269
67 0 0 1000000000 0 0.9807 0.01929
68 0 0 1000000000 0 0.7254 0.2746
69 0 0 1000000000 0 0.25 0.75
70 0 0 1000000000 0 0.04829 0.9517
71 0 0 1000000000 0 0.1536 0.8464
72 0 0 1000000000 0 0.2257 0.7743
73 0 0 1000000000 0 0.5941 0.4059
74 0 0 1000000000 0 0.8825 0.1175
75 0 0 1000000000 0 0.9017 0.09826
76 0 0 1000000000 0 0.2944 0.7056
77 0 0 1000000000 0 0.3085 0.6915
78 0 0 1000000000 0 0.673 0.327
79 0 0 1000000000 0 0.8615 0.1385
80 0 0 1000000000 0 0.3191 0.6809
81 0 0 1000000000 0 0.3354 0.6646
82 0 0 1000000000 0 0.5107 0.4893
83 0 0 1000000000 0 0.1099 0.8901
84 0 0 1000000000 0 0.4262 0.5738
85 0 0 1000000000 0 0.6475 0.3525
86 0 0 1000000000 0 0.5299 0.4701
87 0 0 1000000000 0 0.7614 0.2386
88 0 0 1000000000 0 0.524 0.476
89 0 0 1000000000 0 0.135 0.865
90 0 0 1000000000 0 0.2929 0.7071
91 0 0 1000000000 0 0.06723 0.9328
92 0 0 1000000000 0 0.9437 0.05632
93 0 0 1000000000 0 0.7861 0.2139
94 0 0 1000000000 0 0.5726 0.4274
95 0 0 1000000000 0 0.4707 0.5293
96 0 0 1000000000 0 0.248 0.752
97 0 0 1000000000 0 0.615 0.385
98 0 0 1000000000 0 0.6361 0.3639
99 0 0 1000000000 0 0.9397 0.06033
100 0 0 1000000000 0 0.9294 0.07059
101 0 0 1000000000 0 0.06752 0.9325
102 0 0 1000000000 0 0.8417 0.1583
103 0 0 1000000000 0 0.757 0.243
104 0 0 1000000000 0 0.8669 0.1331
105 0 0 1000000000 0 0.6927 0.3073
106 0 0 1000000000 0 0.235 0.765
107 0 0 1000000000 0 0.5027 0.4973
108 0 0 1000000000 0 0.4793 0.5207
109 0 0 1000000000 0 0.6667 0.3333
110 0 0 1000000000 0 0.4736 0.5264
111 0 0 1000000000 0 0.5288 0.4713
112 0 0 1000000000 0 0.4912 0.5088
113 0 0 1000000000 0 0.01237 0.9876
114 0 0 1000000000 0 0.6816 0.3184
115 0 0 1000000000 0 0.6051 0.3949
116 0 0 1000000000 0 0.2977 0.7023
117 0 0 1000000000 0 0.9052 0.09476
118 0 0 1000000000 0 0.6382 0.3618
119 0 0 1000000000 0 0.3281 0.6719
120 0 0 1000000000 0 0.7633 0.2367
121 0 0 1000000000 0 0.2731 0.7269
122 0 0 1000000000 0 0.4139 0.5861
123 0 0 1000000000 0 0.8963 0.1037
124 0 0 1000000000 0 0.1938 0.8062
125 0 0 1000000000 0 0.4696 0.5304
126 0 0 1000000000 0 0.5032 0.4968
127 0 0 1000000000 0 0.1697 0.8303
128 0 0 1000000000 0 0.4872 0.5128
129 0 0 1000000000 0 0.393 0.607
130 0 0 1000000000 0 0.4389 0.5611
131 0 0 1000000000 0 0.347 0.653
132 0 0 1000000000 0 0.6548 0.3452
133 0 0 1000000000 0 0.5652 0.4348
134 0 0 1000000000 0 0.8702 0.1298
135 0 0 1000000000 0 0.8398 0.1602
136 0 0 1000000000 0 0.8724 0.1276
137 0 0 1000000000 0 0.483 0.517
138 0 0 1000000000 0 0.2928 0.7072
139 0 0 1000000000 0 0.3875 0.6125
140 0 0 1000000000 0 0.5775 0.4225
141 0 0 1000000000 0 0.9619 0.0381
142 0 0 1000000000 0 0.03692 0.9631
143 0 0 1000000000 0 0.2615 0.7385
144 0 0 1000000000 0 0.2743 0.7257
145 0 0 1000000000 0 0.3749 0.6251
146 0 0 1000000000 0 0.737 0.263
147 0 0 1000000000 0 0.2151 0.7849
148 0 0 1000000000 0 0.3943 0.6057
149 0 0 1000000000 0 0.06294 0.9371
150 0 0 1000000000 0 0.607 0.393
151 0 0 1000000000 0 0.8312 0.1688
152 0 0 1000000000 0 0.3991 0.6009
153 0 0 1000000000 0 0.2421 0.7579
154 0 0 1000000000 0 0.5205 0.4795
155 0 0 1000000000 0 0 1
156 0 0 1000000000 0 0.3557 0.6443
157 0 0 1000000000 0 0.04878 0.9512
158 0 0 1000000000 0 0.7326 0.2674
159 0 0 1000000000 0 0.6323 0.3677
160 0 0 1000000000 0 0.8617 0.1383
161 0 0 1000000000 0 0.6828 0.3172
162 0 0 1000000000 0 0.5079 0.4921
163 0 0 1000000000 0 0.05 0.95
164 0 0 1000000000 0 0.734 0.266
165 0 0 1000000000 0 0.3176 0.6824
166 0 0 1000000000 0 0.735 0.265
167 0 0 1000000000 0 0.392 0.608
168 0 0 1000000000 0 0.3908 0.6092
169 0 0 1000000000 0 0.5643 0.4357
170 0 0 1000000000 0 0.7573 0.2427
171 0 0 1000000000 0 0.21 0.79
172 0 0 1000000000 0 0.3655 0.6345
173 0 0 1000000000 0 0.6603 0.3397
174 0 0 1000000000 0 0.5408 0.4592
175 0 0 1000000000 0 0.5775 0.4225
176 0 0 1000000000 0 0.9263 0.07365
177 0 0 1000000000 0 0.9208 0.07925
178 0 0 1000000000 0 0.615 0.385
179 0 0 1000000000 0 0.206 0.794
180 0 0 1000000000 0 0.6842 0.3158
181 0 0 1000000000 0 0.9435 0.0565
182 0 0 1000000000 0 0.4234 0.5766
183 0 0 1000000000 0 0.4588 0.5412
184 0 0 1000000000 0 0.5707 0.4293
185 0 0 1000000000 0 0.3155 0.6845
186 0 0 1000000000 0 0.6789 0.3211
187 0 0 1000000000 0 0.9857 0.01426
188 0 0 1000000000 0 0.1232 0.8768
189 0 0 1000000000 0 0.0819 0.9181
190 0 0 1000000000 0 0.8837 0.1163
191 0 0 1000000000 0 0.9896 0.01042
192 0 0 1000000000 0 0.7743 0.2257
193 0 0 1000000000 0 0.169 0.831
194 0 0 1000000000 0 0.7036 0.2964
195 0 0 1000000000 0 0.4665 0.5335
196 0 0 1000000000 0 0.5786 0.4214
197 0 0 1000000000 0 0.9745 0.02554
198 0 0 1000000000 0 0.01844 0.9816
199 0 0 1000000000 0 0.2289 0.7711
200 0 0 1000000000 0 0.1301 0.8699
201 0 0 1000000000 0 0.697 0.303
202 0 0 1000000000 0 0.348 0.652
203 0 0 1000000000 0 0.6839 0.3161
204 0 0 1000000000 0 0.04219 0.9578
205 0 0 1000000000 0 0.00294 0.9971
206 0 0 1000000000 0 0.3281 0.6719
207 0 0 1000000000 0 0.3631 0.6369
208 0 0 1000000000 0 0.1962 0.8038
209 0 0 1000000000 0 0.7577 0.2423
210 0 0 1000000000 0 0.1344 0.8656
211 0 0 1000000000 0 0.07558 0.9244
212 0 0 1000000000 0 0.1806 0.8194
213 0 0 1000000000 0 0.7574 0.2426
214 0 0 1000000000 0 0.1402 0.8598
215 0 0 1000000000 0 0.1041 0.8959
216 0 0 1000000000 0 0.07758 0.9224
217 0 0 1000000000 0 0.4636 0.5364
218 0 0 1000000000 0 0.8624 0.1376
219 0 0 1000000000 0 0.1709 0.8291
220 0 0 1000000000 0 0.3315 0.6685
221 0 0 1000000000 0 0.9725 0.02746
222 0 0 1000000000 0 0.8904 0.1096
223 0 0 1000000000 0 0.8124 0.1876
224 0 0 1000000000 0 0.9006 0.09937
225 0 0 1000000000 0 0.0223 0.9777
226 0 0 1000000000 0 0.2432 0.7568
227 0 0 1000000000 0 1 0
228 0 0 1000000000 0 0.5042 0.4958
229 0 0 1000000000 0 0.2299 0.7701
230 0 0 1000000000 0 0.5989 0.4011
231 0 0 1000000000 0 0.2292 0.7708
232 0 0 1000000000 0 0.1193 0.8807
233 0 0 1000000000 0 0.8678 0.1322
234 0 0 1000000000 0 0.9325 0.06748
235 0 0 1000000000 0 0.1507 0.8493
236 0 0 1000000000 0 0.01195 0.988
237 0 0 1000000000 0 0.3917 0.6083
238 0 0 1000000000 0 0.7711 0.2289
239 0 0 1000000000 0 0.8448 0.1552
240 0 0 1000000000 0 0.9269 0.07314
241 0 0 1000000000 0 0.6774 0.3226
242 0 0 1000000000 0 0.1388 0.8612
243 0 0 1000000000 0 0.5716 0.4284
244 0 0 1000000000 0 0.4627 0.5373
245 0 0 1000000000 0 0.4158 0.5842
246 0 0 1000000000 0 0.625 0.375
247 0 0 1000000000 0 0.8785 0.1215
248 0 0 1000000000 0 0.4329 0.5671
249 0 0 1000000000 0 0.4994 0.5006
250 0 0 1000000000 0 0.4658 0.5342
251 0 0 1000000000 0 0.5284 0.4716
252 0 0 1000000000 0 0.2658 0.7342
253 0 0 1000000000 0 0.2934 0.7066
254 0 0 1000000000 0 0.3247 0.6753
255 0 0 1000000000 0 0.5125 0.4875
256 0 0 1000000000 0 0.9971 0.00289
257 0 0 1000000000 0 0.5417 0.4583
258 0 0 1000000000 0 0.3166 0.6834
259 0 0 1000000000 0 0.2195 0.7805
260 0 0 1000000000 0 0.19 0.81
261 0 0 1000000000 0 0.6014 0.3986
262 0 0 1000000000 0 0.3496 0.6504
263 0 0 1000000000 0 0.6457 0.3543
264 0 0 1000000000 0 0.846 0.154
265 0 0 1000000000 0 0.1961 0.8039
266 0 0 1000000000 0 0.8865 0.1135
267 0 0 1000000000 0 0.333 0.667
268 0 0 1000000000 0 0.1248 0.8752
269 0 0 1000000000 0 0.8863 0.1137
270 0 0 1000000000 0 0.7218 0.2782
271 0 0 1000000000 0 0.2097 0.7903
272 0 0 1000000000 0 0.5313 0.4687
273 0 0 1000000000 0 0.4921 0.5079
274 0 0 1000000000 0 0.7738 0.2262
275 0 0 1000000000 0 0.2424 0.7576
276 0 0 1000000000 0 0.09251 0.9075
277 0 0 1000000000 0 0.1073 0.8927
278 0 0 1000000000 0 0.4589 0.5411
279 0 0 1000000000 0 0.3115 0.6885
280 0 0 1000000000 0 0.487 0.513
281 0 0 1000000000 0 0.05008 0.9499
282 0 0 1000000000 0 0.1013 0.8987
283 0 0 1000000000 0 0.5801 0.4199
284 0 0 1000000000 0 0.4012 0.5988
285 0 0 1000000000 0 0.5602 0.4398
286 0 0 1000000000 0 0.2438 0.7562
287 0 0 1000000000 0 0.7147 0.2853
288 0 0 1000000000 0 0.8916 0.1084
289 0 0 1000000000 0 0.9567 0.04334
290 0 0 1000000000 0 0.9382 0.06177
291 0 0 1000000000 0 0.9389 0.06113
292 0 0 1000000000 0 0.6947 0.3053
293 0 0 1000000000 0 0.1573 0.8427
294 0 0 1000000000 0 0.6571 0.3429
295 0 0 1000000000 0 0.2298 0.7702
296 0 0 1000000000 0 0.5943 0.4057
297 0 0 1000000000 0 0.5264 0.4736
298 0 0 1000000000 0 0.3206 0.6794
299 0 0 1000000000 0 0.01809 0.9819
300 0 0 1000000000 0 0.7988 0.2012
301 0 0 1000000000 0 0.803 0.197
302 0 0 1000000000 0 0.5023 0.4977
303 0 0 1000000000 0 0.7919 0.2081
304 0 0 1000000000 0 0.5022 0.4978
305 0 0 1000000000 0 0.7805 0.2195
306 0 0 1000000000 0 0.5052 0.4948
307 0 0 1000000000 0 0.3738 0.6262
308 0 0 1000000000 0 0.3995 0.6005
309 0 0 1000000000 0 0.2566 0.7434
310 0 0 1000000000 0 0.8121 0.1879
311 0 0 1000000000 0 0.7354 0.2646
312 0 0 1000000000 0 0.9975 0.00247
313 0 0 1000000000 0 0.9947 0.00529
314 0 0 1000000000 0 0.282 0.718
315 0 0 1000000000 0 0.2019 0.7981
316 0 0 1000000000 0 0.2621 0.7379
317 0 0 1000000000 0 0.9691 0.03093
318 0 0 1000000000 0 0.8904 0.1096
319 0 0 1000000000 0 0.4741 0.5259
320 0 0 1000000000 0 0.6819 0.3181
321 0 0 1000000000 0 0.3008 0.6992
322 0 0 1000000000 0 0.7577 0.2423
323 0 0 1000000000 0 0.7687 0.2313
324 0 0 1000000000 0 0.372 0.628
325 0 0 1000000000 0 0.1677 0.8323
326 0 0 1000000000 0 0.2423 0.7577
327 0 0 1000000000 0 0.331 0.669
328 0 0 1000000000 0 0.9568 0.04319
329 0 0 1000000000 0 0.6035 0.3965
330 0 0 1000000000 0 0.1439 0.8561
331 0 0 1000000000 0 0.1377 0.8623
332 0 0 1000000000 0 0.8791 0.1209
333 0 0 1000000000 0 0.02567 0.9743
334 0 0 1000000000 0 0.5325 0.4675
335 0 0 1000000000 0 0.7869 0.2131
336 0 0 1000000000 0 0.9192 0.08078
337 0 0 1000000000 0 0.4111 0.5889
338 0 0 1000000000 0 0.2764 0.7236
339 0 0 1000000000 0 0.4013 0.5987
340 0 0 1000000000 0 0.3482 0.6518
341 0 0 1000000000 0 0.6958 0.3042
342 0 0 1000000000 0 0.9425 0.05753
343 0 0 1000000000 0 0.2371 0.7629
344 0 0 1000000000 0 0.7465 0.2535
345 0 0 1000000000 0 0.6637 0.3363
346 0 0 1000000000 0 0.4225 0.5775
347 0 0 1000000000 0 0.04457 0.9554
348 0 0 1000000000 0 0.0296 0.9704
349 0 0 1000000000 0 0.7672 0.2328
350 0 0 1000000000 0 0.2815 0.7185
351 0 0 1000000000 0 0.5649 0.4351
352 0 0 1000000000 0 0.5294 0.4706
353 0 0 1000000000 0 0.9329 0.06711
354 0 0 1000000000 0 0.3469 0.6531
355 0 0 1000000000 0 0.2446 0.7554
356 0 0 1000000000 0 0.9833 0.01667
357 0 0 1000000000 0 0.1088 0.8912
358 0 0 1000000000 0 0.06927 0.9307
359 0 0 1000000000 0 0.016 0.984
360 0 0 1000000000 0 0.1358 0.8642
361 0 0 1000000000 0 0.7875 0.2125
362 0 0 1000000000 0 0.5381 0.4619
363 0 0 1000000000 0 0.7187 0.2813
364 0 0 1000000000 0 0.08757 0.9124
365 0 0 1000000000 0 0.567 0.433
366 0 0 1000000000 0 0.06692 0.9331
367 0 0 1000000000 0 0.1847 0.8153
368 0 0 1000000000 0 0.09379 0.9062
369 0 0 1000000000 0 0.8519 0.1481
370 0 0 1000000000 0 0.4213 0.5787
371 0 0 1000000000 0 0.4756 0.5244
372 0 0 1000000000 0 0.9613 0.03866
373 0 0 1000000000 0 0.6365 0.3635
374 0 0 1000000000 0 0.9854 0.01464
375 0 0 1000000000 0 0.6105 0.3895
376 0 0 1000000000 0 0.553 0.447
377 0 0 1000000000 0 0.4951 0.5049
378 0 0 1000000000 0 0.7952 0.2048
379 0 0 1000000000 0 0.9166 0.08343
380 0 0 1000000000 0 0.1793 0.8207
381 0 0 1000000000 0 0.7867 0.2133
382 0 0 1000000000 0 0.4154 0.5846
383 0 0 1000000000 0 0.4718 0.5282
384 0 0 1000000000 0 0.9794 0.0206
385 0 0 1000000000 0 0.3601 0.6399
386 0 0 1000000000 0 0.4118 0.5882
387 0 0 1000000000 0 0.9493 0.05068
388 0 0 1000000000 0 0.7096 0.2904
389 0 0 1000000000 0 0.3806 0.6194
390 0 0 1000000000 0 0.8202 0.1798
391 0 0 1000000000 0 0.6614 0.3386
392 0 0 1000000000 0 0.08689 0.9131
393 0 0 1000000000 0 0.8159 0.1841
394 0 0 1000000000 0 0.5642 0.4358
395 0 0 1000000000 0 0.535 0.465
396 0 0 1000000000 0 0.5 0.5
397 0 0 1000000000 0 0.3746 0.6254
398 0 0 1000000000 0 0.4085 0.5915
399 0 0 1000000000 0 0.1601 0.8399
400 0 0 1000000000 0 0.9286 0.07143
401 0 0 1000000000 0 0.6911 0.3089
402 0 0 1000000000 0 0.7511 0.2489
403 0 0 1000000000 0 0.923 0.07701
404 0 0 1000000000 0 0.7254 0.2746
405 0 0 1000000000 0 0.6743 0.3257
406 0 0 1000000000 0 0.1549 0.8451
407 0 0 1000000000 0 0.184 0.816
408 0 0 1000000000 0 0.07857 0.9214
409 0 0 1000000000 0 0.6025 0.3975
410 0 0 1000000000 0 0.03249 0.9675
411 0 0 1000000000 0 0.8235 0.1765
412 0 0 1000000000 0 0.6318 0.3682
413 0 0 1000000000 0 0.3376 0.6624
414 0 0 1000000000 0 0.7799 0.2201
415 0 0 1000000000 0 0.4191 0.5809
416 0 0 1000000000 0 0.93 0.06995
417 0 0 1000000000 0 0.3231 0.6769
418 0 0 1000000000 0 0.1651 0.8349
419 0 0 1000000000 0 0.6744 0.3256
420 0 0 1000000000 0 0.7289 0.2711
421 0 0 1000000000 0 0.2914 0.7086
422 0 0 1000000000 0 0.4338 0.5662
423 0 0 1000000000 0 0.7024 0.2976
424 0 0 1000000000 0 0.9275 0.07251
425 0 0 1000000000 0 0.1367 0.8633
426 0 0 1000000000 0 0.6747 0.3253
427 0 0 1000000000 0 0.3017 0.6983
428 0 0 1000000000 0 0.7577 0.2423
429 0 0 1000000000 0 0.07273 0.9273
430 0 0 1000000000 0 0.4307 0.5693
431 0 0 1000000000 0 0.5444 0.4556
432 0 0 1000000000 0 0.2401 0.7599
433 0 0 1000000000 0 0.8919 0.1081
434 0 0 1000000000 0 0.6176 0.3824
435 0 0 1000000000 0 0.441 0.559
436 0 0 1000000000 0 0.3057 0.6943
437 0 0 1000000000 0 0.2883 0.7117
438 0 0 1000000000 0 0.4339 0.5661
439 0 0 1000000000 0 0.7579 0.2421
440 0 0 1000000000 0 0.455 0.545
441 0 0 1000000000 0 0.6275 0.3725
442 0 0 1000000000 0 0.4403 0.5597
443 0 0 1000000000 0 0.3125 0.6875
444 0 0 1000000000 0 0.4333 0.5667
445 0 0 1000000000 0 0.4104 0.5896
446 0 0 1000000000 0 0.5159 0.4841
447 0 0 1000000000 0 0.4989 0.5011
448 0 0 1000000000 0 0.2917 0.7083
449 0 0 1000000000 0 0.2734 0.7266
450 0 0 1000000000 0 0.6116 0.3884
451 0 0 1000000000 0 0.4373 0.5627
452 0 0 1000000000 0 0.6178 0.3822
453 0 0 1000000000 0 0.3776 0.6224
454 0 0 1000000000 0 0.7596 0.2404
455 0 0 1000000000 0 0.5943 0.4057
456 0 0 1000000000 0 0.4565 0.5435
457 0 0 1000000000 0 0.5094 0.4906
458 0 0 1000000000 0 0.2391 0.7609
459 0 0 1000000000 0 0.4809 0.5191
460 0 0 1000000000 0 0.3448 0.6552
461 0 0 1000000000 0 0.4318 0.5682
462 0 0 1000000000 0 0.06818 0.9318
463 0 0 1000000000 0 0.4985 0.5015
464 0 0 1000000000 0 0.3519 0.6481
465 0 0 1000000000 0 0.4587 0.5413
466 0 0 1000000000 0 0.9538 0.04624
467 0 0 1000000000 0 0.08543 0.9146
468 0 0 1000000000 0 0.3682 0.6318
469 0 0 1000000000 0 0.6521 0.3479
470 0 0 1000000000 0 0.3232 0.6768
471 0 0 1000000000 0 0.51 0.49
472 0 0 1000000000 0 0.5257 0.4743
473 0 0 1000000000 0 0.3226 0.6774
474 0 0 1000000000 0 0.6503 0.3497
475 0 0 1000000000 0 0.541 0.459
476 0 0 1000000000 0 0.4361 0.5639
477 0 0 1000000000 0 0.2745 0.7255
478 0 0 1000000000 0 0.4431 0.5569
479 0 0 1000000000 0 0.4896 0.5104
480 0 0 1000000000 0 0.02353 0.9765
481 0 0 1000000000 0 0.3867 0.6133
482 0 0 1000000000 0 0.363 0.637
483 0 0 1000000000 0 0.4679 0.5321
484 0 0 1000000000 0 0.2444 0.7556
485 0 0 1000000000 0 0.4816 0.5184
486 0 0 1000000000 0 0.5644 0.4356
487 0 0 1000000000 0 0.454 0.546
488 0 0 1000000000 0 0.437 0.563
489 0 0 1000000000 0 0.3822 0.6178
490 0 0 1000000000 0 0.6 0.4
491 0 0 1000000000 0 0.8442 0.1558
492 0 0 1000000000 0 0.5217 0.4783
493 0 0 1000000000 0 0.4016 0.5984
494 0 0 1000000000 0 0.596 0.404
495 0 0 1000000000 0 0.36 0.64
496 0 0 1000000000 0 0.4537 0.5463
497 0 0 1000000000 0 0.9895 0.01049
498 0 0 1000000000 0 0.9659 0.03405
499 0 0 1000000000 0 0.7381 0.2619
500 0 0 1000000000 0 0.5016 0.4984
501 0 0 1000000000 0 0.5314 0.4686
502 0 0 1000000000 0 0.5325 0.4675
503 0 0 1000000000 0 0.4788 0.5212
504 0 0 1000000000 0 0.4582 0.5418
505 0 0 1000000000 0 0.4306 0.5694
506 0 0 1000000000 0 0.3983 0.6017
507 0 0 1000000000 0 0.412 0.588
508 0 0 1000000000 0 0.8292 0.1708
509 0 0 1000000000 0 0.5377 0.4623
510 0 0 1000000000 0 0.4845 0.5155
511 0 0 1000000000 0 0.2901 0.7099
512 0 0 1000000000 0 0.3173 0.6827
513 0 0 1000000000 0 0.5 0.5
514 0 0 1000000000 0 0.4607 0.5393
515 0 0 1000000000 0 0.2944 0.7056
516 0 0 1000000000 0 0.04098 0.959
517 0 0 1000000000 0 0.6484 0.3516
518 0 0 1000000000 0 0.5262 0.4738
519 0 0 1000000000 0 0.5809 0.4191
520 0 0 1000000000 0 0.4947 0.5053
521 0 0 1000000000 0 0.3866 0.6134
522 0 0 1000000000 0 0.4339 0.5661
523 0 0 1000000000 0 0.46 0.54
524 0 0 1000000000 0 0.05556 0.9444
525 0 0 1000000000 0 0.4513 0.5487
526 0 0 1000000000 0 0.4563 0.5437
527 0 0 1000000000 0 0.3109 0.6891
528 0 0 1000000000 0 0.4372 0.5628
529 0 0 1000000000 0 0.5124 0.4876
530 0 0 1000000000 0 0.4752 0.5248
531 0 0 1000000000 0 0.5378 0.4622
532 0 0 1000000000 0 0.5449 0.4551
533 0 0 1000000000 0 0.1929 0.8071
534 0 0 1000000000 0 0.7436 0.2564
535 0 0 1000000000 0 0.6069 0.3931
536 0 0 1000000000 0 0.8487 0.1513
537 0 0 1000000000 0 0.5437 0.4563
538 0 0 1000000000 0 0.5488 0.4512
539 0 0 1000000000 0 0.1515 0.8485
540 0 0 1000000000 0 0.6336 0.3664
541 0 0 1000000000 0 0.4828 0.5172
542 0 0 1000000000 0 0.4028 0.5972
543 0 0 1000000000 0 0.5519 0.4481
544 0 0 1000000000 0 0.552 0.448
545 0 0 1000000000 0 0.4443 0.5557
546 0 0 1000000000 0 0.5453 0.4547
547 0 0 1000000000 0 0.2463 0.7537
548 0 0 1000000000 0 0.36 0.64
549 0 0 1000000000 0 0.4896 0.5104
550 0 0 1000000000 0 0.8229 0.1771
551 0 0 1000000000 0 0.5587 0.4413
552 0 0 1000000000 0 0.5373 0.4627
553 0 0 1000000000 0 0.2955 0.7045
554 0 0 1000000000 0 0.2754 0.7246
555 0 0 1000000000 0 0.4806 0.5194
556 0 0 1000000000 0 0.676 0.324
557 0 0 1000000000 0 0.2692 0.7308
558 0 0 1000000000 0 0.3063 0.6937
559 0 0 1000000000 0 0.4664 0.5336
560 0 0 1000000000 0 0.4782 0.5218
561 0 0 1000000000 0 0.543 0.457
562 0 0 1000000000 0 0.275 0.725
563 0 0 1000000000 0 0.3017 0.6983
564 0 0 1000000000 0 0.5376 0.4624
565 0 0 1000000000 0 0.4685 0.5315
566 0 0 1000000000 0 0.3246 0.6754
567 0 0 1000000000 0 0.4037 0.5963
568 0 0 1000000000 0 0.6684 0.3316
569 0 0 1000000000 0 0.4747 0.5253
570 0 0 1000000000 0 0.2625 0.7375
571 0 0 1000000000 0 0.904 0.09596
572 0 0 1000000000 0 0.5303 0.4697
573 0 0 1000000000 0 0.5784 0.4216
574 0 0 1000000000 0 0.9375 0.0625
575 0 0 1000000000 0 0.09091 0.9091
576 0 0 1000000000 0 0.4965 0.5035
577 0 0 1000000000 0 0.445 0.555
578 0 0 1000000000 0 0.7126 0.2874
579 0 0 1000000000 0 0.4897 0.5103
580 0 0 1000000000 0 0.4819 0.5181
581 0 0 1000000000 0 0.3657 0.6343
582 0 0 1000000000 0 0.4165 0.5835
583 0 0 1000000000 0 0.9821 0.01786
584 0 0 1000000000 0 0.05208 0.9479
585 0 0 1000000000 0 0.3988 0.6012
586 0 0 1000000000 0 0.4578 0.5422
587 0 0 1000000000 0 0.5649 0.4351
588 0 0 1000000000 0 0.356 0.644
589 0 0 1000000000 0 0.8317 0.1683
590 0 0 1000000000 0 0.5076 0.4924
591 0 0 1000000000 0 0.4519 0.5481
592 0 0 1000000000 0 0.3864 0.6136
593 0 0 1000000000 0 0.4378 0.5622
594 0 0 1000000000 0 0.7532 0.2468
595 0 0 1000000000 0 0.6906 0.3094
596 0 0 1000000000 0 0.7449 0.2551
597 0 0 1000000000 0 0.5303 0.4697
598 0 0 1000000000 0 0.6999 0.3001
599 0 0 1000000000 0 0.09259 0.9074
600 0 0 1000000000 0 0.5672 0.4328
601 0 0 1000000000 0 0.5333 0.4667
602 0 0 1000000000 0 0.49 0.51
603 0 0 1000000000 0 0.5741 0.4259
604 0 0 1000000000 0 0.3117 0.6883
605 0 0 1000000000 0 0.5607 0.4393
606 0 0 1000000000 0 0.4328 0.5672
607 0 0 1000000000 0 0.6231 0.3769
608 0 0 1000000000 0 0.55 0.45
609 0 0 1000000000 0 0.4286 0.5714
610 0 0 1000000000 0 0.5788 0.4212
611 0 0 1000000000 0 0.4145 0.5855
612 0 0 1000000000 0 0.4701 0.5299
613 0 0 1000000000 0 0.4443 0.5557
614 0 0 1000000000 0 0.2266 0.7734
615 0 0 1000000000 0 0.2787 0.7213
616 0 0 1000000000 0 0.5072 0.4928
617 0 0 1000000000 0 0.535 0.465
618 0 0 1000000000 0 0.03125 0.9688
619 0 0 1000000000 0 0.7778 0.2222
620 0 0 1000000000 0 0.4289 0.5711
621 0 0 1000000000 0 0.3719 0.6281
622 0 0 1000000000 0 0.1933 0.8067
623 0 0 1000000000 0 0.2954 0.7046
624 0 0 1000000000 0 0.00787 0.9921
625 0 0 1000000000 0 0.4323 0.5677
626 0 0 1000000000 0 0.5019 0.4981
627 0 0 1000000000 0 0.5351 0.4649
628 0 0 1000000000 0 0.5871 0.4129
629 0 0 1000000000 0 0.3929 0.6071
630 0 0 1000000000 0 0.4053 0.5947
631 0 0 1000000000 0 0.3208 0.6792
632 0 0 1000000000 0 0.1583 0.8417
633 0 0 1000000000 0 0.4155 0.5845
634 0 0 1000000000 0 0.5817 0.4183
635 0 0 1000000000 0 0.5318 0.4682
636 0 0 1000000000 0 0.5083 0.4917
637 0 0 1000000000 0 0.5012 0.4988
638 0 0 1000000000 0 0.7634 0.2366
639 0 0 1000000000 0 0.3711 0.6289
640 0 0 1000000000 0 0.5053 0.4947
641 0 0 1000000000 0 0.9936 0.00637
642 0 0 1000000000 0 0.2565 0.7435
643 0 0 1000000000 0 0.304 0.696
644 0 0 1000000000 0 0.4044 0.5956
645 0 0 1000000000 0 0.6167 0.3833
646 0 0 1000000000 0 0.5502 0.4498
647 0 0 1000000000 0 0.4089 0.5911
648 0 0 1000000000 0 0.7072 0.2928
649 0 0 1000000000 0 0.411 0.589
650 0 0 1000000000 0 0.2258 0.7742
651 0 0 1000000000 0 0.4068 0.5932
652 0 0 1000000000 0 0.4492 0.5508
653 0 0 1000000000 0 0.5482 0.4518
654 0 0 1000000000 0 0 1
655 0 0 1000000000 0 0.3856 0.6144
656 0 0 1000000000 0 0.6697 0.3303
657 0 0 1000000000 0 0.3558 0.6442
658 0 0 1000000000 0 0.6795 0.3205
659 0 0 1000000000 0 0.3147 0.6853
660 0 0 1000000000 0 0.4261 0.5739
661 0 0 1000000000 0 0.6522 0.3478
662 0 0 1000000000 0 0.441 0.559
663 0 0 1000000000 0 0.4485 0.5515
664 0 0 1000000000 0 0.4989 0.5011
665 0 0 1000000000 0 0.5773 0.4227
666 0 0 1000000000 0 0.875 0.125
667 0 0 1000000000 0 0.6972 0.3028
668 0 0 1000000000 0 0.4701 0.5299
669 0 0 1000000000 0 0.7254 0.2746
670 0 0 1000000000 0 0.1579 0.8421
671 0 0 1000000000 0 0.4134 0.5866
672 0 0 1000000000 0 0.3946 0.6054
673 0 0 1000000000 0 0.6312 0.3688
674 0 0 1000000000 0 0.6722 0.3278
675 0 0 1000000000 0 0.2959 0.7041
676 0 0 1000000000 0 0.6533 0.3467
677 0 0 1000000000 0 0.4796 0.5204
678 0 0 1000000000 0 0.4027 0.5973
679 0 0 1000000000 0 0.4412 0.5588
680 0 0 1000000000 0 0.2791 0.7209
681 0 0 1000000000 0 0.4769 0.5231
682 0 0 1000000000 0 0.3026 0.6974
683 0 0 1000000000 0 0.08249 0.9175
684 0 0 1000000000 0 0.5333 0.4667
685 0 0 1000000000 0 0.5044 0.4956
686 0 0 1000000000 0 0.4931 0.5069
687 0 0 1000000000 0 0.00659 0.9934
688 0 0 1000000000 0 0.2799 0.7201
689 0 0 1000000000 0 0.4512 0.5488
690 0 0 1000000000 0 0.6694 0.3306
691 0 0 1000000000 0 0.02817 0.9718
692 0 0 1000000000 0 0.5613 0.4387
693 0 0 1000000000 0 0.5981 0.4019
694 0 0 1000000000 0 0.4054 0.5946
695 0 0 1000000000 0 0.6851 0.3149
696 0 0 1000000000 0 0.4683 0.5317
697 0 0 1000000000 0 0.8782 0.1218
698 0 0 1000000000 0 0.5423 0.4577
699 0 0 1000000000 0 0.03401 0.966
700 0 0 1000000000 0 0.4779 0.5221
701 0 0 1000000000 0 0.2601 0.7399
702 0 0 1000000000 0 0.6588 0.3412
703 0 0 1000000000 0 0.4634 0.5366
704 0 0 1000000000 0 0.5476 0.4524
705 0 0 1000000000 0 0.5235 0.4765
706 0 0 1000000000 0 0.4158 0.5842
707 0 0 1000000000 0 0.7519 0.2481
708 0 0 1000000000 0 0.4452 0.5548
709 0 0 1000000000 0 0.2242 0.7758
710 0 0 1000000000 0 0.3383 0.6617
711 0 0 1000000000 0 0.2488 0.7512
712 0 0 1000000000 0 0.5186 0.4814
713 0 0 1000000000 0 0.4808 0.5192
714 0 0 1000000000 0 0.9739 0.02614
715 0 0 1000000000 0 0.5194 0.4806
716 0 0 1000000000 0 0.6857 0.3143
717 0 0 1000000000 0 0.4066 0.5934
718 0 0 1000000000 0 0.2619 0.7381
719 0 0 1000000000 0 0.5089 0.4911
720 0 0 1000000000 0 0.3398 0.6602
721 0 0 1000000000 0 0.4546 0.5454
722 0 0 1000000000 0 0.8219 0.1781
723 0 0 1000000000 0 0.5553 0.4447
724 0 0 1000000000 0 0.4615 0.5385
725 0 0 1000000000 0 0.386 0.614
726 0 0 1000000000 0 0.4766 0.5234
727 0 0 1000000000 0 0.3114 0.6886
728 0 0 1000000000 0 0.5283 0.4717
729 0 0 1000000000 0 0.0365 0.9635
730 0 0 1000000000 0 0.5596 0.4404
731 0 0 1000000000 0 0.5564 0.4436
732 0 0 1000000000 0 0.1288 0.8712
733 0 0 1000000000 0 0.3057 0.6943
734 0 0 1000000000 0 0.4673 0.5327
735 0 0 1000000000 0 0.3536 0.6464
736 0 0 1000000000 0 0.5189 0.4811
737 0 0 1000000000 0 0.3877 0.6123
738 0 0 1000000000 0 0.3902 0.6098
739 0 0 1000000000 0 0.5231 0.4769
740 0 0 1000000000 0 0.5605 0.4395
741 0 0 1000000000 0 0.4145 0.5855
742 0 0 1000000000 0 0.6688 0.3312
743 0 0 1000000000 0 0.5541 0.4459
744 0 0 1000000000 0 0.2683 0.7317
745 0 0 1000000000 0 0.389 0.611
746 0 0 1000000000 0 0.8667 0.1333
747 0 0 1000000000 0 0.9615 0.03846
748 0 0 1000000000 0 0.7789 0.2211
749 0 0 1000000000 0 0.3107 0.6893
750 0 0 1000000000 0 0.5386 0.4614
751 0 0 1000000000 0 0.425 0.575
752 0 0 1000000000 0 0.4489 0.5511
753 0 0 1000000000 0 0.3333 0.6667
754 0 0 1000000000 0 0.6396 0.3604
755 0 0 1000000000 0 0.6002 0.3998
756 0 0 1000000000 0 0.5955 0.4045
757 0 0 1000000000 0 0.6831 0.3169
758 0 0 1000000000 0 0.3895 0.6105
759 0 0 1000000000 0 0.491 0.509
760 0 0 1000000000 0 0.3424 0.6576
761 0 0 1000000000 0 0.46 0.54
762 0 0 1000000000 0 0.5874 0.4126
763 0 0 1000000000 0 0.5236 0.4764
764 0 0 1000000000 0 0.3576 0.6424
765 0 0 1000000000 0 0.4764 0.5236
766 0 0 1000000000 0 0.2821 0.7179
767 0 0 1000000000 0 0.5437 0.4563
768 0 0 1000000000 0 0.3892 0.6108
769 0 0 1000000000 0 0.5458 0.4542
770 0 0 1000000000 0 0.3517 0.6483
771 0 0 1000000000 0 0.3801 0.6199
772 0 0 1000000000 0 0.3899 0.6101
773 0 0 1000000000 0 0.5485 0.4515
774 0 0 1000000000 0 0.3873 0.6127
775 0 0 1000000000 0 0.5274 0.4726
776 0 0 1000000000 0 0.5364 0.4636
777 0 0 1000000000 0 0.3721 0.6279
778 0 0 1000000000 0 0.5061 0.4939
779 0 0 1000000000 0 0.5345 0.4655
780 0 0 1000000000 0 0.3917 0.6083
781 0 0 1000000000 0 0.5619 0.4381
782 0 0 1000000000 0 0.1387 0.8613
783 0 0 1000000000 0 0.5576 0.4424
784 0 0 1000000000 0 0.3759 0.6241
785 0 0 1000000000 0 0.6496 0.3504
786 0 0 1000000000 0 0.1365 0.8635
787 0 0 1000000000 0 0.3092 0.6908
788 0 0 1000000000 0 0.4694 0.5306
789 0 0 1000000000 0 0.6557 0.3443
790 0 0 1000000000 0 0.4702 0.5298
791 0 0 1000000000 0 0.5801 0.4199
792 0 0 1000000000 0 0.302 0.698
793 0 0 1000000000 0 0.7343 0.2657
794 0 0 1000000000 0 0.08491 0.9151
795 0 0 1000000000 0 0.3801 0.6199
796 0 0 1000000000 0 0.3794 0.6206
797 0 0 1000000000 0 0.5484 0.4516
798 0 0 1000000000 0 0.4886 0.5114
799 0 0 1000000000 0 0.378 0.622
800 0 0 1000000000 0 0.3393 0.6607
801 0 0 1000000000 0 0.6906 0.3094
802 0 0 1000000000 0 0.6281 0.3719
803 0 0 1000000000 0 0.4806 0.5194
804 0 0 1000000000 0 0.5682 0.4318
805 0 0 1000000000 0 0.43 0.57
806 0 0 1000000000 0 0.03704 0.963
807 0 0 1000000000 0 0.5471 0.4529
808 0 0 1000000000 0 0.6048 0.3952
809 0 0 1000000000 0 0.6199 0.3801
810 0 0 1000000000 0 0.4343 0.5657
811 0 0 1000000000 0 0.6065 0.3935
812 0 0 1000000000 0 0.3565 0.6435
813 0 0 1000000000 0 0.4062 0.5938
814 0 0 1000000000 0 0.4356 0.5644
815 0 0 1000000000 0 0.5455 0.4545
816 0 0 1000000000 0 0.7131 0.2869
817 0 0 1000000000 0 0.5285 0.4715
818 0 0 1000000000 0 0.41 0.59
819 0 0 1000000000 0 0.5232 0.4768
820 0 0 1000000000 0 0.5632 0.4368
821 0 0 1000000000 0 0.275 0.725
822 0 0 1000000000 0 0.2072 0.7928
823 0 0 1000000000 0 0.1236 0.8764
824 0 0 1000000000 0 0.378 0.622
825 0 0 1000000000 0 0.3875 0.6125
826 0 0 1000000000 0 0.6356 0.3644
827 0 0 1000000000 0 0.4335 0.5665
828 0 0 1000000000 0 0.4573 0.5427
829 0 0 1000000000 0 0.1237 0.8763
830 0 0 1000000000 0 0.5565 0.4435
831 0 0 1000000000 0 0.4419 0.5581
832 0 0 1000000000 0 0.2472 0.7528
833 0 0 1000000000 0 0.9213 0.07874
834 0 0 1000000000 0 0.96 0.04
835 0 0 1000000000 0 0.1558 0.8442
836 0 0 1000000000 0 0.6867 0.3133
837 0 0 1000000000 0 0.4298 0.5702
838 0 0 1000000000 0 0.5079 0.4921
839 0 0 1000000000 0 0.3987 0.6013
840 0 0 1000000000 0 0.8898 0.1102
841 0 0 1000000000 0 0.706 0.294
842 0 0 1000000000 0 0.5094 0.4906
843 0 0 1000000000 0 0.28 0.72
844 0 0 1000000000 0 0.5492 0.4508
845 0 0 1000000000 0 0.509 0.491
846 0 0 1000000000 0 0.5029 0.4971
847 0 0 1000000000 0 0.511 0.489
848 0 0 1000000000 0 0.5274 0.4726
849 0 0 1000000000 0 0.4053 0.5947
850 0 0 1000000000 0 0.4388 0.5612
851 0 0 1000000000 0 0.243 0.757
852 0 0 1000000000 0 0.4513 0.5487
853 0 0 1000000000 0 0.1632 0.8368
854 0 0 1000000000 0 0.5491 0.4509
855 0 0 1000000000 0 0.6598 0.3402
856 0 0 1000000000 0 0.4307 0.5693
